150 10
1
69 35 96 21 35 55 46 40 14 49 46 51 23 28 30 11 75 69 34 59 34 53 71 38 90 43 69 22 46 57 30 90 42 3 49 41 15 90 17 90 91 92 23 25 30 39 25 79 30 34 40 15 45 81 70 40 96 48 89 75 50 28 5 44 44 89 33 11 19 64 83 62 82 51 26 51 37 12 64 21 33 97 50 28 15 12 89 49 41 24 33 27 74 60 60 77 10 70 12 71 82 44 35 45 0 28 5 82 85 68 45 20 32 30 71 11 81 35 92 64 95 76 75 98 76 75 8 13 10 86 59 20 4 18 55 80 58 19 41 5 73 63 47 29 61 15 84 26 76 41
808 482 708 514 891 728 421 668 677 931
0 0 0 0 0 0 0 0 0 0 0 0 0 0 4 0 0 0 0 23 0 0 31 0 0 0 0 0 0 0 0 0 0 0 0 0 54 0 0 97 0 95 49 0 0 54 0 0 0 0 0 0 0 0 0 0 0 0 0 0 0 0 0 0 0 0 0 93 0 0 0 0 0 81 0 0 86 0 0 0 86 0 19 41 0 94 0 0 0 0 0 0 0 0 0 0 0 0 0 0 30 0 0 0 0 90 80 17 37 0 0 29 0 0 0 0 0 0 0 0 0 0 0 0 0 0 0 0 0 0 0 0 0 0 48 51 7 0 0 0 0 0 0 0 0 0 0 46 0 87
0 0 0 2 0 37 0 0 83 0 0 0 4 0 0 0 0 0 0 0 0 91 0 0 0 0 14 0 0 0 0 0 0 0 0 0 0 0 0 0 0 0 0 0 0 0 91 0 0 72 0 0 0 0 0 0 0 0 0 0 0 0 0 0 0 0 38 0 0 0 0 0 0 0 0 45 0 0 0 0 0 0 0 20 73 0 0 0 0 0 0 0 0 0 0 0 0 0 0 0 0 52 0 0 0 0 0 25 0 0 0 0 0 0 0 18 0 0 0 0 0 0 0 58 0 0 41 0 0 0 0 37 0 0 0 0 0 0 0 27 0 0 0 0 0 0 0 0 0 0
0 0 0 0 0 0 0 0 0 43 0 0 64 3 0 0 0 0 0 0 0 0 0 0 0 0 0 0 72 0 0 0 0 0 0 0 36 0 0 2 0 0 3 0 10 0 0 0 0 0 0 0 0 0 0 0 66 0 0 0 0 0 72 0 0 0 0 0 0 0 0 0 99 0 0 0 51 75 0 0 0 0 0 0 0 0 0 0 0 12 40 31 0 0 70 0 0 55 0 0 0 0 0 7 0 0 0 0 0 0 0 67 0 0 0 0 27 10 0 42 0 0 0 25 0 0 43 0 0 0 82 0 0 0 0 0 0 80 40 0 0 0 0 42 0 0 0 0 0 0
0 0 0 0 51 0 98 0 0 0 0 0 0 0 0 24 0 0 0 0 0 0 0 13 28 82 0 0 0 0 0 0 0 0 0 0 0 0 0 0 0 0 0 3 0 0 0 0 0 77 0 0 0 0 0 0 0 0 0 0 0 30 0 0 0 0 0 0 0 0 43 0 60 0 0 85 0 0 0 0 0 0 0 0 0 0 0 0 0 0 0 0 0 0 0 0 0 0 0 0 0 8 0 0 0 0 0 61 28 0 12 0 0 0 0 0 0 0 0 0 0 0 0 0 10 0 0 0 0 0 0 0 0 0 77 0 16 87 0 0 0 0 0 0 0 0 0 0 0 0
0 0 0 83 94 0 14 0 0 0 0 0 5 0 0 0 0 0 0 0 0 0 76 0 0 0 0 57 0 0 0 0 64 0 0 0 81 0 0 0 6 0 70 52 0 50 0 52 0 0 0 0 0 95 0 0 0 0 0 0 21 0 0 61 0 0 0 57 0 0 0 2 0 0 0 66 7 1 0 0 91 0 0 0 0 0 0 0 0 0 86 0 62 22 0 0 0 0 0 0 0 0 6 0 0 0 0 63 0 0 0 0 0 0 0 0 0 0 0 0 0 0 0 84 0 0 0 0 0 27 0 43 0 0 0 0 0 0 0 0 96 0 0 0 0 0 0 0 0 0
0 0 0 0 0 0 0 0 0 0 63 94 0 0 0 0 0 0 0 50 0 0 0 0 0 59 0 0 0 0 0 0 0 0 0 0 0 0 0 0 0 0 0 0 0 0 0 0 45 0 0 0 0 0 0 0 0 0 0 0 66 0 0 96 0 21 0 0 0 0 0 0 86 0 0 0 0 0 4 0 18 0 0 0 0 60 0 85 0 0 0 0 0 80 0 0 0 99 0 0 0 0 0 0 42 0 0 0 11 0 0 0 0 0 0 0 0 0 0 0 0 0 25 39 0 0 0 0 0 23 0 0 79 0 0 0 36 32 11 0 0 0 36 0 16 0 0 0 0 0
0 0 0 0 0 0 0 0 0 9 0 0 0 0 0 0 0 0 0 0 0 0 0 0 0 0 0 0 0 81 0 0 0 0 0 0 57 0 0 0 23 0 0 0 66 0 34 0 0 0 70 0 0 0 0 0 0 0 0 0 0 0 0 0 0 0 0 83 0 0 0 0 0 0 71 0 0 0 0 0 0 0 0 0 0 0 0 0 0 0 0 0 0 0 0 0 0 16 0 0 0 0 0 0 0 0 0 0 0 0 72 0 57 0 0 0 0 0 0 0 0 0 0 0 0 0 0 0 0 0 0 0 57 0 0 0 0 0 0 0 0 0 0 0 29 0 0 0 0 0
0 0 0 0 0 67 0 0 36 57 0 0 0 0 0 0 0 0 75 0 0 0 0 0 0 0 0 0 0 0 0 0 0 84 0 25 0 0 0 0 0 0 0 0 0 0 0 0 0 38 0 79 6 0 0 0 0 0 52 0 21 0 0 0 19 0 0 0 0 0 0 0 0 0 0 0 0 0 0 0 0 0 0 0 0 0 0 0 0 0 0 0 0 0 55 0 0 0 21 0 0 99 0 0 0 85 0 0 60 0 39 0 0 0 0 23 0 0 0 0 0 0 0 0 0 0 0 0 88 0 0 0 0 30 52 0 0 0 0 0 0 0 0 0 0 33 0 0 0 0
0 0 0 0 0 0 0 0 57 0 0 0 0 0 0 0 0 0 0 0 0 47 0 0 0 0 0 0 0 37 0 0 0 0 98 23 0 0 0 0 0 0 0 0 0 0 0 33 0 0 0 0 17 0 62 0 0 0 0 0 0 0 0 0 67 0 0 0 0 0 0 38 0 0 0 70 0 0 0 0 40 0 0 2 0 51 47 0 0 70 0 52 0 81 0 0 0 0 0 0 0 0 0 0 0 0 0 0 0 0 0 0 46 0 0 0 0 0 0 0 19 0 0 0 0 0 0 0 0 0 0 0 0 0 0 0 0 0 0 0 0 0 93 0 0 0 0 91 0 51
28 30 0 89 46 0 0 5 0 0 0 0 0 0 36 0 0 0 0 0 0 0 0 0 0 0 0 0 0 69 0 0 0 0 0 33 0 0 0 0 0 0 0 0 0 0 0 0 0 0 33 0 0 16 0 0 0 0 0 0 84 0 0 0 0 0 0 56 18 0 45 0 0 0 0 38 77 0 0 0 0 0 0 0 0 0 0 0 0 0 0 0 0 87 0 0 0 0 80 0 0 87 0 0 0 0 27 0 0 78 91 14 0 0 8 61 0 0 0 0 0 30 0 0 0 0 82 0 0 0 0 0 0 0 40 0 0 0 0 0 97 0 94 97 0 0 0 0 0 0
0 0 0 0 0 0 0 0 0 0 0 0 0 0 0 0 0 0 0 16 0 0 10 0 0 0 0 0 0 0 0 0 0 0 0 0 41 0 0 55 0 69 20 0 0 35 0 0 0 0 0 0 0 0 0 0 0 0 0 0 0 0 0 0 0 0 0 50 0 0 0 0 0 32 0 0 7 0 0 0 49 0 16 32 0 27 0 0 0 0 0 0 0 0 0 0 0 0 0 0 17 0 0 0 0 66 47 2 13 0 0 21 0 0 0 0 0 0 0 0 0 0 0 0 0 0 0 0 0 0 0 0 0 0 29 25 2 0 0 0 0 0 0 0 0 0 0 19 0 80
0 0 0 1 0 22 0 0 0 0 0 0 1 0 0 0 0 0 0 0 0 37 0 0 0 0 7 0 0 0 0 0 0 0 0 0 0 0 0 0 0 0 0 0 0 0 79 0 0 69 0 0 0 0 0 0 0 0 0 0 0 0 0 0 0 0 6 0 0 0 0 0 0 0 0 22 0 0 0 0 0 0 0 2 53 0 0 0 0 0 0 0 0 0 0 0 0 0 0 0 0 42 0 0 0 0 0 10 0 0 0 0 0 0 0 4 0 0 0 0 0 0 0 9 0 0 25 0 0 0 0 2 0 0 0 0 0 0 0 9 0 0 0 0 0 0 0 0 0 0
0 0 0 0 0 0 0 0 0 2 0 0 14 2 0 0 0 0 0 0 0 0 0 0 0 0 0 0 37 0 0 0 0 0 0 0 1 0 0 0 0 0 1 0 8 0 0 0 0 0 0 0 0 0 0 0 43 0 0 0 0 0 40 0 0 0 0 0 0 0 0 0 1 0 0 0 36 44 0 0 0 0 0 0 0 0 0 0 0 3 6 29 0 0 7 0 0 40 0 0 0 0 0 2 0 0 0 0 0 0 0 35 0 0 0 0 0 0 0 32 0 0 0 2 0 0 38 0 0 0 34 0 0 0 0 0 0 75 12 0 0 0 0 21 0 0 0 0 0 0
0 0 0 0 18 0 67 0 0 0 0 0 0 0 0 19 0 0 0 0 0 0 0 5 23 22 0 0 0 0 0 0 0 0 0 0 0 0 0 0 0 0 0 2 0 0 0 0 0 23 0 0 0 0 0 0 0 0 0 0 0 29 0 0 0 0 0 0 0 0 24 0 49 0 0 81 0 0 0 0 0 0 0 0 0 0 0 0 0 0 0 0 0 0 0 0 0 0 0 0 0 5 0 0 0 0 0 23 15 0 3 0 0 0 0 0 0 0 0 0 0 0 0 0 6 0 0 0 0 0 0 0 0 0 20 0 10 1 0 0 0 0 0 0 0 0 0 0 0 0
0 0 0 69 50 0 5 0 0 0 0 0 2 0 0 0 0 0 0 0 0 0 60 0 0 0 0 37 0 0 0 0 27 0 0 0 16 0 0 0 3 0 51 38 0 21 0 2 0 0 0 0 0 66 0 0 0 0 0 0 12 0 0 3 0 0 0 33 0 0 0 0 0 0 0 35 3 0 0 0 26 0 0 0 0 0 0 0 0 0 37 0 54 4 0 0 0 0 0 0 0 0 2 0 0 0 0 2 0 0 0 0 0 0 0 0 0 0 0 0 0 0 0 51 0 0 0 0 0 19 0 37 0 0 0 0 0 0 0 0 39 0 0 0 0 0 0 0 0 0
0 0 0 0 0 0 0 0 0 0 21 84 0 0 0 0 0 0 0 9 0 0 0 0 0 44 0 0 0 0 0 0 0 0 0 0 0 0 0 0 0 0 0 0 0 0 0 0 36 0 0 0 0 0 0 0 0 0 0 0 55 0 0 21 0 16 0 0 0 0 0 0 60 0 0 0 0 0 2 0 15 0 0 0 0 19 0 2 0 0 0 0 0 13 0 0 0 86 0 0 0 0 0 0 18 0 0 0 5 0 0 0 0 0 0 0 0 0 0 0 0 0 3 20 0 0 0 0 0 21 0 0 68 0 0 0 4 11 9 0 0 0 12 0 15 0 0 0 0 0
0 0 0 0 0 0 0 0 0 0 0 0 0 0 0 0 0 0 0 0 0 0 0 0 0 0 0 0 0 69 0 0 0 0 0 0 15 0 0 0 1 0 0 0 40 0 22 0 0 0 5 0 0 0 0 0 0 0 0 0 0 0 0 0 0 0 0 26 0 0 0 0 0 0 1 0 0 0 0 0 0 0 0 0 0 0 0 0 0 0 0 0 0 0 0 0 0 2 0 0 0 0 0 0 0 0 0 0 0 0 50 0 26 0 0 0 0 0 0 0 0 0 0 0 0 0 0 0 0 0 0 0 45 0 0 0 0 0 0 0 0 0 0 0 27 0 0 0 0 0
0 0 0 0 0 41 0 0 0 53 0 0 0 0 0 0 0 0 48 0 0 0 0 0 0 0 0 0 0 0 0 0 0 16 0 7 0 0 0 0 0 0 0 0 0 0 0 0 0 13 0 72 2 0 0 0 0 0 34 0 2 0 0 0 11 0 0 0 0 0 0 0 0 0 0 0 0 0 0 0 0 0 0 0 0 0 0 0 0 0 0 0 0 0 52 0 0 0 9 0 0 50 0 0 0 74 0 0 47 0 38 0 0 0 0 21 0 0 0 0 0 0 0 0 0 0 0 0 81 0 0 0 0 27 36 0 0 0 0 0 0 0 0 0 0 15 0 0 0 0
0 0 0 0 0 0 0 0 24 0 0 0 0 0 0 0 0 0 0 0 0 27 0 0 0 0 0 0 0 15 0 0 0 0 14 7 0 0 0 0 0 0 0 0 0 0 0 4 0 0 0 0 14 0 42 0 0 0 0 0 0 0 0 0 65 0 0 0 0 0 0 4 0 0 0 47 0 0 0 0 29 0 0 1 0 16 43 0 0 52 0 19 0 64 0 0 0 0 0 0 0 0 0 0 0 0 0 0 0 0 0 0 21 0 0 0 0 0 0 0 6 0 0 0 0 0 0 0 0 0 0 0 0 0 0 0 0 0 0 0 0 0 57 0 0 0 0 41 0 33
22 17 0 24 22 0 0 1 0 0 0 0 0 0 16 0 0 0 0 0 0 0 0 0 0 0 0 0 0 15 0 0 0 0 0 14 0 0 0 0 0 0 0 0 0 0 0 0 0 0 18 0 0 12 0 0 0 0 0 0 40 0 0 0 0 0 0 43 3 0 20 0 0 0 0 4 35 0 0 0 0 0 0 0 0 0 0 0 0 0 0 0 0 76 0 0 0 0 72 0 0 1 0 0 0 0 9 0 0 36 10 3 0 0 1 41 0 0 0 0 0 12 0 0 0 0 41 0 0 0 0 0 0 0 25 0 0 0 0 0 95 0 5 34 0 0 0 0 0 0
